problems/csplib-prob110/ArmiesOfQueens-models/noch/O2/minion/model_2_1-08-solution000001.eprime-solution
language ESSENCE' 1.0

letting black_ExplicitVarSizeWithFlags_Flags be
        [true, true, true, true, true, true, true, true, false, false, false, false, false, false, false, false, false,
         false, false, false, false, false, false, false, false, false, false, false, false, false, false, false, false,
         false, false, false, false, false, false, false, false, false, false, false, false, false, false, false, false,
         false, false, false, false, false, false, false, false, false, false, false, false, false, false, false;
             int(1..64)]
letting black_ExplicitVarSizeWithFlags_Values_1 be
        [1, 1, 1, 1, 1, 2, 2, 2, 1, 1, 1, 1, 1, 1, 1, 1, 1, 1, 1, 1, 1, 1, 1, 1, 1, 1, 1, 1, 1, 1, 1, 1, 1, 1, 1, 1, 1,
         1, 1, 1, 1, 1, 1, 1, 1, 1, 1, 1, 1, 1, 1, 1, 1, 1, 1, 1, 1, 1, 1, 1, 1, 1, 1, 1;
             int(1..64)]
letting black_ExplicitVarSizeWithFlags_Values_2 be
        [1, 2, 3, 6, 7, 2, 3, 6, 1, 1, 1, 1, 1, 1, 1, 1, 1, 1, 1, 1, 1, 1, 1, 1, 1, 1, 1, 1, 1, 1, 1, 1, 1, 1, 1, 1, 1,
         1, 1, 1, 1, 1, 1, 1, 1, 1, 1, 1, 1, 1, 1, 1, 1, 1, 1, 1, 1, 1, 1, 1, 1, 1, 1, 1;
             int(1..64)]
letting white_ExplicitVarSizeWithMarker_Marker be 8
letting white_ExplicitVarSizeWithMarker_Values_1 be
        [5, 5, 6, 6, 7, 7, 8, 8, 1, 1, 1, 1, 1, 1, 1, 1, 1, 1, 1, 1, 1, 1, 1, 1, 1, 1, 1, 1, 1, 1, 1, 1, 1, 1, 1, 1, 1,
         1, 1, 1, 1, 1, 1, 1, 1, 1, 1, 1, 1, 1, 1, 1, 1, 1, 1, 1, 1, 1, 1, 1, 1, 1, 1, 1;
             int(1..64)]
letting white_ExplicitVarSizeWithMarker_Values_2 be
        [4, 8, 4, 5, 4, 5, 4, 5, 1, 1, 1, 1, 1, 1, 1, 1, 1, 1, 1, 1, 1, 1, 1, 1, 1, 1, 1, 1, 1, 1, 1, 1, 1, 1, 1, 1, 1,
         1, 1, 1, 1, 1, 1, 1, 1, 1, 1, 1, 1, 1, 1, 1, 1, 1, 1, 1, 1, 1, 1, 1, 1, 1, 1, 1;
             int(1..64)]
