problems/csplib-prob110/ArmiesOfQueens-models/noch/O2/minion/model_2_1-08-solution000001.solution
language Essence 1.3

letting black be {(1, 1), (1, 2), (1, 3), (1, 6), (1, 7), (2, 2), (2, 3), (2, 6)}
$ Visualisation for black
$ 1 1
$ 1 2
$ 1 3
$ 1 6
$ 1 7
$ 2 2
$ 2 3
$ 2 6

letting white be {(5, 4), (5, 8), (6, 4), (6, 5), (7, 4), (7, 5), (8, 4), (8, 5)}
$ Visualisation for white
$ 5 4
$ 5 8
$ 6 4
$ 6 5
$ 7 4
$ 7 5
$ 8 4
$ 8 5

